(declare-fun temp2779_1 () (_ BitVec 64))
(declare-fun var138796 () (_ BitVec 64))
(declare-fun ARGNAME_pad_NAMEEND_LEN () (_ BitVec 64))
(declare-fun temp2779_2 () (_ BitVec 64))
(declare-fun temp2779_3 () (_ BitVec 64))
(declare-fun var138797 () (_ BitVec 64))
(declare-fun k!0 () (_ BitVec 1))
(declare-fun k!1 () Bool)
(declare-fun temp2779_4 () (_ BitVec 64))
(declare-fun ARGNAME_input_NAMEEND_DIM () (_ BitVec 64))
(declare-fun var138809 () (_ BitVec 64))
(declare-fun var138810 () (_ BitVec 64))
(declare-fun temp2779_5 () (_ BitVec 64))
(declare-fun temp2779_6 () (_ BitVec 64))
(declare-fun var197425 () (_ BitVec 64))
(declare-fun temp2779_7 () (_ BitVec 64))
(declare-fun var197427 () (_ BitVec 64))
(declare-fun temp2779_8 () (_ BitVec 64))
(declare-fun temp2779_9 () (_ BitVec 64))
(declare-fun var197483 () (_ BitVec 64))
(declare-fun var197485 () (_ BitVec 64))
(declare-fun var197486 () (_ BitVec 64))
(declare-fun temp2779_10 () (_ BitVec 64))
(declare-fun var394824 () (_ BitVec 64))
(declare-fun var530404 () (_ BitVec 64))
(declare-fun temp2779_11 () (_ BitVec 64))
(declare-fun var197581 () (_ BitVec 64))
(declare-fun temp2779_12 () (_ BitVec 64))
(declare-fun var853647 () (_ BitVec 64))
(declare-fun temp2779_13 () (_ BitVec 64))
(declare-fun var197569 () (_ BitVec 64))
(declare-fun temp2779_14 () (_ BitVec 64))
(declare-fun temp2779_15 () (_ BitVec 64))
(declare-fun var197703 () (_ BitVec 64))
(declare-fun temp2779_16 () (_ BitVec 64))
(declare-fun temp2779_17 () (_ BitVec 64))
(declare-fun ARGNAME_input_NAMEEND_DIMSIZE
             ()
             (Array (_ BitVec 64) (_ BitVec 64)))
(declare-fun temp2779_18 () (_ BitVec 64))
(declare-fun temp2779_19 () (_ BitVec 64))
(declare-fun temp2779_20 () (_ BitVec 64))
(declare-fun temp2779_21 () (_ BitVec 64))
(declare-fun temp2779_22 () (_ BitVec 64))
(declare-fun temp2779_23 () (_ BitVec 64))
(declare-fun temp2779_24 () (_ BitVec 64))
(declare-fun temp2779_25 () (_ BitVec 64))
(declare-fun temp2779_26 () (_ BitVec 64))
(declare-fun temp2779_27 () (_ BitVec 64))
(declare-fun temp2779_28 () (_ BitVec 64))
(declare-fun temp2779_29 () (_ BitVec 64))
(declare-fun temp2779_30 () (_ BitVec 64))
(declare-fun temp2779_31 () (_ BitVec 64))
(declare-fun temp2779_32 () (_ BitVec 64))
(declare-fun temp2779_33 () (_ BitVec 64))
(declare-fun temp2779_35 () (_ BitVec 64))
(declare-fun temp2779_36 () (_ BitVec 64))
(declare-fun temp2779_34 () (_ BitVec 64))
(declare-fun temp2779_37 () (_ BitVec 64))
(declare-fun var197704 () (_ BitVec 64))
(declare-fun var197707 () (_ BitVec 64))
(declare-fun var1181363 () (_ BitVec 64))
(declare-fun temp2779_40 () (_ BitVec 64))
(declare-fun temp2779_39 () (_ BitVec 64))
(declare-fun temp2779_41 () (_ BitVec 64))
(declare-fun var1316570 () (_ BitVec 64))
(declare-fun temp2779_42 () (_ BitVec 64))
(declare-fun var2098921 () (_ BitVec 64))
(declare-fun temp2779_43 () (_ BitVec 64))
(declare-fun temp2779_44 () (_ BitVec 64))
(declare-fun var2098954 () (_ BitVec 64))
(declare-fun temp2779_45 () (_ BitVec 64))
(declare-fun temp2779_46 () (_ BitVec 64))
(declare-fun var2099006 () (_ BitVec 64))
(declare-fun var2098919 () (_ BitVec 64))
(declare-fun var197749 () (_ BitVec 64))
(declare-fun var3671624 () (_ BitVec 64))
(declare-fun var3807204 () (_ BitVec 64))
(declare-fun temp2779_47 () (_ BitVec 64))
(declare-fun var4130447 () (_ BitVec 64))
(assert (= temp2779_1 #x0000000000000001))
(assert (= var138796 (bvand ARGNAME_pad_NAMEEND_LEN temp2779_1)))
(assert (= temp2779_2 #x0000000000000000))
(assert (= var138797
   (ite (= var138796 temp2779_2) #x0000000000000001 #x0000000000000000)))
(assert (= temp2779_3 #x0000000000000001))
(assert (= var138797 temp2779_3))
(assert (= temp2779_4 #x0000000000000001))
(assert (= var138809 (bvshl ARGNAME_input_NAMEEND_DIM temp2779_4)))
(assert (= var138810
   (ite (bvsgt ARGNAME_pad_NAMEEND_LEN var138809)
        #x0000000000000001
        #x0000000000000000)))
(assert (= temp2779_5 #x0000000000000000))
(assert (= var138810 temp2779_5))
(assert (= temp2779_6 #x0000000000000001))
(assert (= var197425 (bvand ARGNAME_pad_NAMEEND_LEN temp2779_6)))
(assert (= temp2779_7 #x0000000000000000))
(assert (= var197427
   (ite (= var197425 temp2779_7) #x0000000000000001 #x0000000000000000)))
(assert (= temp2779_8 #x0000000000000001))
(assert (= var197427 temp2779_8))
(assert (= temp2779_9 #x0000000000000001))
(assert (= var197483 (bvlshr ARGNAME_pad_NAMEEND_LEN temp2779_9)))
(assert (= var197485 (bvsub ARGNAME_input_NAMEEND_DIM var197483)))
(assert (= var197486
   (ite (bvslt ARGNAME_input_NAMEEND_DIM var197483)
        #x0000000000000001
        #x0000000000000000)))
(assert (= temp2779_10 #x0000000000000000))
(assert (= var197486 temp2779_10))
(assert (= var394824 var197485))
(assert (= var530404 var394824))
(assert (= temp2779_11 #x0000000000000001))
(assert (= var197581 temp2779_11))
(assert (= temp2779_12 #x0000000000000000))
(assert (= var853647 temp2779_12))
(assert (= temp2779_13 #x0000000000000000))
(assert (= var197569
   (ite (= var197485 temp2779_13) #x0000000000000001 #x0000000000000000)))
(assert (= temp2779_14 #x0000000000000000))
(assert (= var197569 temp2779_14))
(assert (= temp2779_15 #x0000000000000000))
(assert (= var197703 temp2779_15))
(assert (= temp2779_16 #x0000000000000000))
(assert (= temp2779_17 temp2779_16))
(assert (= temp2779_18 (select ARGNAME_input_NAMEEND_DIMSIZE temp2779_17)))
(assert (= temp2779_19 #x0000000000000001))
(assert (= temp2779_20 temp2779_19))
(assert (= temp2779_21 (select ARGNAME_input_NAMEEND_DIMSIZE temp2779_20)))
(assert (= temp2779_22 #x0000000000000002))
(assert (= temp2779_23 temp2779_22))
(assert (= temp2779_24 (select ARGNAME_input_NAMEEND_DIMSIZE temp2779_23)))
(assert (= temp2779_25 #x0000000000000003))
(assert (= temp2779_26 temp2779_25))
(assert (= temp2779_27 (select ARGNAME_input_NAMEEND_DIMSIZE temp2779_26)))
(assert (= temp2779_28 #x0000000000000004))
(assert (= temp2779_29 temp2779_28))
(assert (= temp2779_30 (select ARGNAME_input_NAMEEND_DIMSIZE temp2779_29)))
(assert (= temp2779_31 #x0000000000000005))
(assert (= temp2779_32 temp2779_31))
(assert (= temp2779_33 (select ARGNAME_input_NAMEEND_DIMSIZE temp2779_32)))
(assert (= temp2779_35 var197703))
(assert (= temp2779_36 (select ARGNAME_input_NAMEEND_DIMSIZE temp2779_35)))
(assert (= temp2779_34 temp2779_36))
(assert (= temp2779_37 #x0000000000000001))
(assert (= var197704 (bvadd var197703 temp2779_37)))
(assert (= var197707
   (ite (= var197704 var197485) #x0000000000000001 #x0000000000000000)))
(assert (= var1181363 var197483))
(assert (= temp2779_40 #x0000000000000000))
(assert (= temp2779_39 temp2779_40))
(assert (= temp2779_41 #x0000000000000000))
(assert (= var1316570 temp2779_41))
(assert (= temp2779_42 #x0000000000000000))
(assert (= var2098921 temp2779_42))
(assert (= temp2779_43 #x0000000000000000))
(assert (= var2098921 temp2779_43))
(assert (= temp2779_44 #x0000000000000000))
(assert (= var2098954 temp2779_44))
(assert (= temp2779_45 #x0000000000000000))
(assert (= var2098954 temp2779_45))
(assert (= temp2779_46 #x0000000000000002))
(assert (= var2099006 temp2779_46))
(assert (= var2098919 var2099006))
(assert (= var197749 var2098919))
(assert (= var3671624 var197485))
(assert (= var3807204 var3671624))
(assert (= temp2779_47 #x0000000000000000))
(assert (= var4130447 temp2779_47))
(model-add temp2779_1 () (_ BitVec 64) #x0000000000000001)
(model-add var138796
           ()
           (_ BitVec 64)
           (concat #b000000000000000000000000000000000000000000000000000000000000000
                   ((_ extract 0 0) ARGNAME_pad_NAMEEND_LEN)))
(model-add temp2779_2 () (_ BitVec 64) #x0000000000000000)
(model-add temp2779_3 () (_ BitVec 64) #x0000000000000001)
(model-add var138797 () (_ BitVec 64) #x0000000000000001)
(model-del k!0)
(model-add ARGNAME_pad_NAMEEND_LEN
           ()
           (_ BitVec 64)
           (concat #b000000000000000000000000000000000000000000000000000000000000000
                   k!0))
(model-del k!1)
(model-add k!0 () (_ BitVec 1) (ite k!1 #b0 (bvnot #b0)))





